-99 -99 000 000 -99 -99 000 000 -99 -99 -99 -99 -99 000 000 -99 -99 -99 -99 000 008 001 -99 -99 000 000 000 -99 000 000 -99
000 -99 -99 000 000 000 000 000 -99 -99 -99 -99 -99 000 -99 -99 -99 -99 -99 -99 011 003 001 -99 -99 000 000 -99 000 000 -99
000 000 -99 000 000 000 000 000 000 -99 -99 000 000 -99 -99 -99 -99 -99 -99 -99 -99 002 001 -99 -99 000 000 000 000 000 -99
000 000 000 000 000 000 000 000 000 000 -99 000 000 -99 000 -99 -99 -99 -99 -99 -99 000 000 000 -99 000 000 000 000 000 -99
000 000 000 000 000 000 000 000 000 000 -99 000 000 000 000 000 000 -99 -99 -99 -99 -99 000 000 000 000 000 000 000 -99 -99
000 -99 000 000 000 000 000 000 000 000 -99 -99 000 -99 000 000 000 000 -99 -99 -99 -99 000 000 000 000 000 000 000 -99 -99
000 000 -99 000 000 000 000 000 000 000 -99 -99 -99 -99 000 000 000 000 -99 -99 -99 000 000 000 000 000 -99 -99 -99 000 -99
000 000 000 000 000 000 000 000 000 000 -99 -99 -99 -99 -99 000 000 000 -99 -99 000 000 -99 -99 000 000 -99 -99 -99 000 000
000 000 000 000 000 000 000 000 000 000 -99 -99 -99 -99 -99 -99 000 -99 -99 -99 000 000 000 -99 000 000 -99 -99 000 000 000
000 000 000 000 000 000 000 000 000 000 000 -99 -99 -99 -99 -99 -99 -99 -99 -99 000 000 000 -99 -99 000 000 000 000 000 000
000 000 000 000 000 000 000 000 000 000 000 000 -99 -99 -99 -99 -99 -99 -99 -99 -99 000 000 -99 -99 000 000 000 000 000 000
000 000 000 000 000 000 000 000 -99 000 000 000 -99 -99 -99 000 000 000 -99 -99 -99 000 000 000 000 000 000 000 000 000 000
000 000 000 000 000 000 000 -99 -99 000 000 000 -99 -99 -99 000 000 000 000 -99 -99 000 000 000 000 000 000 000 000 000 -99
000 000 000 000 000 000 000 -99 -99 -99 000 -99 -99 -99 -99 -99 -99 000 000 -99 -99 -99 000 000 000 000 000 000 000 000 -99
000 000 000 000 000 000 000 -99 -99 -99 -99 -99 -99 000 -99 -99 -99 -99 000 -99 -99 -99 -99 -99 000 000 000 000 000 000 000
000 000 000 000 000 000 000 000 -99 -99 -99 -99 -99 000 -99 -99 -99 -99 000 -99 -99 -99 000 000 000 000 000 000 000 000 000
000 000 000 000 -99 000 000 000 -99 -99 -99 -99 000 000 000 -99 -99 000 -99 -99 -99 -99 000 -99 000 000 000 000 000 000 000
-99 000 000 -99 -99 000 000 000 000 -99 -99 -99 -99 000 000 -99 000 000 -99 -99 -99 -99 000 000 000 000 000 -99 000 000 000
000 000 000 000 000 -99 -99 000 000 -99 -99 -99 -99 -99 000 -99 000 000 -99 -99 -99 -99 -99 -99 -99 -99 000 000 -99 000 000
000 000 000 000 000 000 000 000 000 -99 -99 -99 -99 -99 -99 000 000 000 000 -99 -99 -99 000 -99 -99 -99 000 -99 -99 -99 -99
000 000 000 000 000 000 000 000 000 -99 -99 -99 -99 -99 -99 000 000 000 000 -99 -99 -99 000 -99 -99 -99 000 -99 -99 -99 -99
000 000 000 000 000 000 000 000 000 -99 000 000 -99 -99 -99 000 000 000 000 000 -99 -99 000 -99 -99 000 000 -99 -99 -99 -99
000 000 000 000 000 000 000 000 000 -99 000 000 -99 -99 -99 000 000 000 000 000 -99 000 000 -99 000 000 -99 -99 -99 -99 -99
000 000 000 000 000 000 000 000 000 -99 -99 -99 -99 -99 -99 000 000 000 000 000 -99 000 000 -99 000 000 -99 -99 -99 -99 -99
000 000 000 000 000 000 000 000 000 -99 -99 -99 -99 -99 -99 000 000 000 000 000 -99 000 000 -99 -99 -99 -99 -99 -99 -99 -99
000 -99 000 000 000 000 000 000 000 000 -99 -99 -99 -99 000 000 000 000 -99 -99 -99 000 000 -99 -99 -99 -99 -99 -99 -99 000
000 -99 000 000 000 000 000 000 000 -99 -99 -99 -99 -99 -99 000 000 000 000 -99 -99 -99 -99 -99 -99 -99 -99 -99 -99 000 000
000 000 000 000 000 000 000 000 -99 -99 -99 -99 -99 -99 000 000 000 000 -99 -99 -99 -99 -99 -99 -99 -99 -99 -99 -99 000 000
000 000 -99 -99 -99 000 000 000 000 -99 -99 -99 -99 -99 -99 000 000 000 -99 -99 -99 000 -99 -99 -99 -99 -99 -99 -99 -99 000
-99 000 000 -99 -99 000 000 000 000 -99 -99 -99 -99 -99 -99 000 000 000 -99 -99 -99 000 -99 -99 000 000 -99 -99 -99 -99 -99
-99 000 000 -99 000 000 000 000 000 -99 -99 -99 -99 -99 -99 000 000 000 000 -99 -99 000 -99 000 000 000 -99 -99 -99 -99 -99
000 000 000 -99 000 000 000 000 000 -99 -99 -99 -99 000 000 000 000 000 000 -99 000 000 000 000 000 000 -99 -99 -99 000 -99
-99 000 -99 000 000 000 000 000 000 -99 -99 -99 -99 000 000 000 000 000 000 -99 000 000 000 000 000 000 -99 -99 -99 000 000
-99 -99 000 -99 000 000 000 000 -99 -99 -99 -99 000 000 000 000 000 000 000 -99 -99 000 000 000 -99 000 000 000 000 000 000
-99 -99 -99 000 -99 000 000 -99 -99 -99 -99 -99 000 000 000 000 000 000 -99 -99 -99 000 000 000 000 000 000 000 000 000 000
-99 000 000 -99 -99 -99 -99 000 000 -99 -99 -99 -99 000 000 000 000 000 -99 -99 -99 000 -99 -99 000 000 000 000 -99 -99 -99
000 000 -99 000 000 -99 -99 -99 -99 -99 -99 -99 -99 -99 000 000 000 000 000 -99 000 000 -99 -99 000 000 000 000 -99 -99 -99
000 000 -99 000 000 -99 -99 -99 -99 -99 -99 -99 -99 -99 000 000 000 000 -99 -99 000 000 -99 -99 000 000 000 -99 -99 -99 -99
000 000 000 000 000 -99 -99 -99 -99 -99 -99 -99 -99 000 000 000 000 -99 -99 -99 000 000 -99 -99 000 000 000 000 -99 -99 -99
000 -99 000 000 -99 -99 -99 -99 -99 -99 -99 -99 000 000 000 000 000 -99 -99 -99 000 -99 -99 -99 -99 000 000 000 -99 -99 -99
000 000 -99 -99 -99 -99 -99 -99 -99 -99 -99 -99 000 000 000 000 -99 -99 -99 -99 -99 -99 -99 -99 -99 -99 000 -99 -99 -99 -99
000 000 -99 -99 -99 -99 -99 -99 -99 -99 -99 -99 000 000 000 000 -99 -99 -99 -99 -99 -99 -99 -99 -99 -99 -99 -99 -99 000 -99
000 000 -99 -99 -99 -99 -99 000 -99 -99 -99 000 000 -99 -99 000 -99 -99 -99 -99 -99 -99 -99 -99 -99 -99 -99 -99 -99 -99 -99
-99 -99 -99 -99 -99 -99 000 000 -99 -99 -99 000 000 -99 000 000 000 000 000 000 -99 -99 -99 -99 -99 -99 -99 -99 -99 -99 -99
-99 -99 -99 -99 -99 -99 000 000 -99 -99 -99 -99 -99 -99 000 000 -99 -99 000 000 -99 -99 -99 -99 000 000 000 000 -99 -99 -99
-99 -99 -99 -99 -99 -99 -99 -99 -99 -99 -99 -99 -99 -99 000 000 -99 000 000 000 000 -99 -99 000 000 000 000 000 -99 -99 000
-99 -99 -99 -99 -99 -99 -99 -99 -99 -99 -99 -99 -99 -99 000 -99 -99 -99 000 000 -99 -99 000 000 000 000 000 -99 -99 -99 -99
-99 -99 -99 -99 -99 -99 -99 -99 -99 -99 -99 -99 -99 -99 -99 -99 -99 000 000 000 -99 -99 000 000 -99 000 000 -99 -99 -99 -99
-99 -99 -99 -99 -99 -99 -99 -99 -99 -99 -99 -99 -99 -99 -99 -99 -99 000 000 000 -99 -99 000 000 -99 000 000 000 -99 -99 -99
-99 -99 -99 -99 -99 -99 -99 -99 -99 -99 -99 -99 -99 -99 -99 -99 -99 000 000 000 000 -99 -99 -99 -99 000 000 000 -99 -99 -99
-99 -99 -99 -99 -99 -99 -99 -99 -99 -99 -99 -99 -99 -99 -99 -99 -99 -99 000 000 -99 -99 -99 -99 -99 -99 000 -99 -99 -99 -99
-99 -99 -99 -99 -99 -99 -99 -99 -99 -99 -99 -99 -99 -99 -99 -99 -99 000 000 000 -99 -99 -99 -99 -99 -99 -99 -99 -99 -99 -99
-99 -99 -99 -99 -99 -99 -99 -99 -99 -99 -99 -99 -99 -99 -99 -99 -99 -99 000 -99 -99 -99 -99 -99 -99 -99 -99 -99 -99 -99 -99
-99 -99 -99 -99 -99 -99 -99 -99 -99 -99 -99 -99 -99 -99 -99 -99 -99 -99 -99 -99 -99 -99 -99 -99 -99 -99 -99 -99 -99 -99 -99
-99 -99 -99 -99 -99 -99 -99 -99 -99 -99 -99 -99 -99 -99 -99 -99 -99 -99 -99 -99 -99 -99 -99 -99 -99 -99 -99 -99 -99 -99 -99
